words_hard_train/6898.qaiger
aag 161 24 0 1 137
2
4
8
12
26
40
54
68
76
90
104
118
130
156
170
186
202
216
230
246
262
276
282
284
323
6 2 5
10 5 9
14 9 13
16 8 12
18 15 17
20 19 4
22 11 21
24 22 15
28 25 27
30 24 26
32 29 31
34 6 32
36 35 31
38 11 13
42 39 40
44 38 41
46 43 45
48 46 21
50 47 20
52 49 51
56 53 55
58 52 54
60 57 59
62 36 61
64 37 60
66 63 65
70 66 69
72 3 4
74 73 7
78 74 77
80 71 79
82 75 76
84 65 59
86 10 41
88 87 13
92 89 90
94 88 91
96 93 95
98 96 51
100 97 50
102 99 101
106 103 105
108 102 104
110 107 109
112 84 111
114 85 110
116 113 115
120 116 119
122 83 121
124 80 122
126 7 33
128 127 35
132 129 131
134 128 130
136 133 135
138 117 118
140 137 139
142 67 68
144 140 143
146 124 144
148 115 109
150 86 91
152 151 101
154 151 12
158 155 157
160 154 156
162 159 161
164 152 162
166 153 163
168 165 167
172 169 171
174 168 170
176 173 175
178 149 176
180 179 175
182 150 157
184 183 13
188 185 186
190 184 187
192 189 191
194 163 100
196 192 195
198 193 194
200 197 199
204 201 203
206 200 202
208 205 207
210 180 209
212 181 208
214 211 213
218 214 216
220 215 217
222 219 221
224 146 223
226 148 177
228 227 179
232 228 231
234 229 230
236 233 235
238 224 236
240 213 207
242 182 187
244 243 12
248 245 246
250 244 247
252 249 251
254 243 199
256 252 255
258 253 254
260 257 259
264 261 263
266 260 262
268 265 267
270 240 269
272 241 268
274 271 273
278 274 277
280 238 279
286 282 284
288 283 285
290 287 289
292 247 13
294 292 242
296 291 294
298 290 295
300 297 299
302 252 198
304 301 302
306 300 303
308 305 307
310 273 267
312 309 311
314 308 310
316 313 315
318 275 276
320 317 319
322 280 320
i0 1 x1[0]
i1 2 y2[0]
i2 2 y2[1]
i3 2 y2[7]
i4 1 x1[1]
i5 2 y2[2]
i6 1 x1[2]
i7 2 y1[2]
i8 2 y1[0]
i9 2 y2[3]
i10 1 x1[3]
i11 2 y1[3]
i12 2 y1[1]
i13 2 y2[4]
i14 1 x1[4]
i15 2 y2[5]
i16 1 x1[5]
i17 2 y1[5]
i18 2 y1[4]
i19 2 y2[6]
i20 1 x1[6]
i21 2 y1[6]
i22 1 x1[7]
i23 2 y1[7]
o0 bool[0]
c
simplified
  !=
    2 y1
    add
      subtract
        1
        abs
          2 y2
      1 x1
