words_hard_train/6898.qaiger.qdimacs
p cnf 161 412
a 1 131 101 13 141 52 85 27 0
e 2 3 4 5 6 7 8 9 10 11 12 14 15 16 17 18 19 20 21 22 23 24 25 26 28 29 30 31 32 33 34 35 36 37 38 39 40 41 42 43 44 45 46 47 48 49 50 51 53 54 55 56 57 58 59 60 61 62 63 64 65 66 67 68 69 70 71 72 73 74 75 76 77 78 79 80 81 82 83 84 86 87 88 89 90 91 92 93 94 95 96 97 98 99 100 102 103 104 105 106 107 108 109 110 111 112 113 114 115 116 117 118 119 120 121 122 123 124 125 126 127 128 129 130 132 133 134 135 136 137 138 139 140 142 143 144 145 146 147 148 149 150 151 152 153 154 155 156 157 158 159 160 161 0
-1 2 3 0
1 -3 0
-2 -3 0
2 4 5 0
-2 -5 0
-4 -5 0
4 6 7 0
-4 -7 0
-6 -7 0
-4 -6 8 0
4 -8 0
6 -8 0
7 8 9 0
-7 -9 0
-8 -9 0
9 -2 10 0
-9 -10 0
2 -10 0
5 10 11 0
-5 -11 0
-10 -11 0
-11 7 12 0
11 -12 0
-7 -12 0
12 13 14 0
-12 -14 0
-13 -14 0
-12 -13 15 0
12 -15 0
13 -15 0
14 15 16 0
-14 -16 0
-15 -16 0
-3 -16 17 0
3 -17 0
16 -17 0
17 15 18 0
-17 -18 0
-15 -18 0
5 6 19 0
-5 -19 0
-6 -19 0
19 -20 21 0
-19 -21 0
20 -21 0
-19 20 22 0
19 -22 0
-20 -22 0
21 22 23 0
-21 -23 0
-22 -23 0
-23 10 24 0
23 -24 0
-10 -24 0
23 -10 25 0
-23 -25 0
10 -25 0
24 25 26 0
-24 -26 0
-25 -26 0
26 27 28 0
-26 -28 0
-27 -28 0
-26 -27 29 0
26 -29 0
27 -29 0
28 29 30 0
-28 -30 0
-29 -30 0
-18 30 31 0
18 -31 0
-30 -31 0
18 -30 32 0
-18 -32 0
30 -32 0
31 32 33 0
-31 -33 0
-32 -33 0
-33 34 35 0
33 -35 0
-34 -35 0
1 -2 36 0
-1 -36 0
2 -36 0
36 3 37 0
-36 -37 0
-3 -37 0
-37 38 39 0
37 -39 0
-38 -39 0
35 39 40 0
-35 -40 0
-39 -40 0
37 -38 41 0
-37 -41 0
38 -41 0
32 29 42 0
-32 -42 0
-29 -42 0
-5 20 43 0
5 -43 0
-20 -43 0
43 6 44 0
-43 -44 0
-6 -44 0
44 -45 46 0
-44 -46 0
45 -46 0
-44 45 47 0
44 -47 0
-45 -47 0
46 47 48 0
-46 -48 0
-47 -48 0
-48 25 49 0
48 -49 0
-25 -49 0
48 -25 50 0
-48 -50 0
25 -50 0
49 50 51 0
-49 -51 0
-50 -51 0
51 52 53 0
-51 -53 0
-52 -53 0
-51 -52 54 0
51 -54 0
52 -54 0
53 54 55 0
-53 -55 0
-54 -55 0
-42 55 56 0
42 -56 0
-55 -56 0
42 -55 57 0
-42 -57 0
55 -57 0
56 57 58 0
-56 -58 0
-57 -58 0
-58 59 60 0
58 -60 0
-59 -60 0
41 60 61 0
-41 -61 0
-60 -61 0
-40 -61 62 0
40 -62 0
61 -62 0
3 16 63 0
-3 -63 0
-16 -63 0
63 17 64 0
-63 -64 0
-17 -64 0
64 65 66 0
-64 -66 0
-65 -66 0
-64 -65 67 0
64 -67 0
65 -67 0
66 67 68 0
-66 -68 0
-67 -68 0
58 -59 69 0
-58 -69 0
59 -69 0
68 69 70 0
-68 -70 0
-69 -70 0
33 -34 71 0
-33 -71 0
34 -71 0
-70 71 72 0
70 -72 0
-71 -72 0
-62 -72 73 0
62 -73 0
72 -73 0
57 54 74 0
-57 -74 0
-54 -74 0
-43 45 75 0
43 -75 0
-45 -75 0
75 50 76 0
-75 -76 0
-50 -76 0
75 -6 77 0
-75 -77 0
6 -77 0
77 78 79 0
-77 -79 0
-78 -79 0
-77 -78 80 0
77 -80 0
78 -80 0
79 80 81 0
-79 -81 0
-80 -81 0
-76 -81 82 0
76 -82 0
81 -82 0
76 81 83 0
-76 -83 0
-81 -83 0
82 83 84 0
-82 -84 0
-83 -84 0
84 85 86 0
-84 -86 0
-85 -86 0
-84 -85 87 0
84 -87 0
85 -87 0
86 87 88 0
-86 -88 0
-87 -88 0
74 -88 89 0
-74 -89 0
88 -89 0
89 87 90 0
-89 -90 0
-87 -90 0
-75 78 91 0
75 -91 0
-78 -91 0
91 6 92 0
-91 -92 0
-6 -92 0
92 -93 94 0
-92 -94 0
93 -94 0
-92 93 95 0
92 -95 0
-93 -95 0
94 95 96 0
-94 -96 0
-95 -96 0
81 -50 97 0
-81 -97 0
50 -97 0
-96 97 98 0
96 -98 0
-97 -98 0
96 -97 99 0
-96 -99 0
97 -99 0
98 99 100 0
-98 -100 0
-99 -100 0
100 101 102 0
-100 -102 0
-101 -102 0
-100 -101 103 0
100 -103 0
101 -103 0
102 103 104 0
-102 -104 0
-103 -104 0
-90 104 105 0
90 -105 0
-104 -105 0
90 -104 106 0
-90 -106 0
104 -106 0
105 106 107 0
-105 -107 0
-106 -107 0
-107 -108 109 0
107 -109 0
108 -109 0
107 108 110 0
-107 -110 0
-108 -110 0
109 110 111 0
-109 -111 0
-110 -111 0
-73 111 112 0
73 -112 0
-111 -112 0
-74 88 113 0
74 -113 0
-88 -113 0
113 89 114 0
-113 -114 0
-89 -114 0
-114 115 116 0
114 -116 0
-115 -116 0
114 -115 117 0
-114 -117 0
115 -117 0
116 117 118 0
-116 -118 0
-117 -118 0
-112 -118 119 0
112 -119 0
118 -119 0
106 103 120 0
-106 -120 0
-103 -120 0
-91 93 121 0
91 -121 0
-93 -121 0
121 -6 122 0
-121 -122 0
6 -122 0
122 -123 124 0
-122 -124 0
123 -124 0
-122 123 125 0
122 -125 0
-123 -125 0
124 125 126 0
-124 -126 0
-125 -126 0
121 99 127 0
-121 -127 0
-99 -127 0
-126 127 128 0
126 -128 0
-127 -128 0
126 -127 129 0
-126 -129 0
127 -129 0
128 129 130 0
-128 -130 0
-129 -130 0
130 131 132 0
-130 -132 0
-131 -132 0
-130 -131 133 0
130 -133 0
131 -133 0
132 133 134 0
-132 -134 0
-133 -134 0
-120 134 135 0
120 -135 0
-134 -135 0
120 -134 136 0
-120 -136 0
134 -136 0
135 136 137 0
-135 -137 0
-136 -137 0
-137 138 139 0
137 -139 0
-138 -139 0
-119 139 140 0
119 -140 0
-139 -140 0
-141 -142 143 0
141 -143 0
142 -143 0
141 142 144 0
-141 -144 0
-142 -144 0
143 144 145 0
-143 -145 0
-144 -145 0
123 6 146 0
-123 -146 0
-6 -146 0
-146 -121 147 0
146 -147 0
121 -147 0
145 -147 148 0
-145 -148 0
147 -148 0
-145 147 149 0
145 -149 0
-147 -149 0
148 149 150 0
-148 -150 0
-149 -150 0
-126 -99 151 0
126 -151 0
99 -151 0
150 -151 152 0
-150 -152 0
151 -152 0
-150 151 153 0
150 -153 0
-151 -153 0
152 153 154 0
-152 -154 0
-153 -154 0
136 133 155 0
-136 -155 0
-133 -155 0
154 155 156 0
-154 -156 0
-155 -156 0
-154 -155 157 0
154 -157 0
155 -157 0
156 157 158 0
-156 -158 0
-157 -158 0
137 -138 159 0
-137 -159 0
138 -159 0
158 159 160 0
-158 -160 0
-159 -160 0
-140 -160 161 0
140 -161 0
160 -161 0
-161 0
